p cnf 32 80
a 17 14 0
e 1 2 3 4 5 6 7 8 9 10 11 12 13 15 16 18 19 20 21 22 23 24 25 26 27 28 29 30 31 32 0
-1 -2 -3 0
1 2 -3 0
-1 2 3 0
1 -2 3 0
-4 -3 0
-4 3 0
8 -6 0
8 -7 0
6 7 -8 0
-9 5 0
-9 8 0
-5 -8 9 0
-10 -9 0
-10 2 0
9 -2 10 0
11 2 -12 0
-11 -2 -12 0
11 -2 12 0
-11 2 12 0
-13 14 -15 0
13 -14 -15 0
-13 -14 15 0
13 14 15 0
-16 -12 0
-16 -15 0
12 15 16 0
17 10 0
17 16 0
-10 -16 -17 0
-18 8 0
-18 -2 0
-8 2 18 0
17 18 -19 0
-17 -18 -19 0
17 -18 19 0
-17 18 19 0
-21 -20 0
-21 2 0
20 -2 21 0
-22 21 0
-22 5 0
-21 -5 22 0
22 -20 -23 0
-22 20 -23 0
22 20 23 0
-22 -20 23 0
-25 -24 0
-25 -7 0
24 7 25 0
-26 -14 0
-26 24 0
14 -24 26 0
-27 25 0
-27 26 0
-25 -26 27 0
-28 23 0
-28 27 0
-23 -27 28 0
-19 -28 -29 0
19 28 -29 0
-19 28 29 0
19 -28 29 0
-30 4 0
-30 -29 0
-4 29 30 0
-31 -8 0
-31 21 0
8 -21 31 0
30 -31 -32 0
-30 31 -32 0
30 31 32 0
-30 -31 32 0
12 -18 5 11 4 -3 31 -26 0
11 22 -29 -27 32 16 12 13 0
-20 -12 28 -27 -26 -19 0
30 18 32 -12 10 -11 26 -20 0
-20 9 21 -10 31 0
19 12 6 11 31 -27 1 0
22 20 4 -26 0
32 0
